# Solution for model tg
# Objective value = 3.4999999996399815e+01
s000 0
f000 3.4999999996399815e+01
s001 6.9999999999999982e+00
f001 1.4999999999999998e+01
s002 1.4999999999999998e+01
f002 2.2999999999999993e+01
s003 6.9999999999999574e+00
f003 1.4999999999999957e+01
s004 1.4999999999999957e+01
f004 1.8999999999999957e+01
s005 4
f005 7
s006 3.1999999996399822e+01
f006 3.4999999996399822e+01
s007 2.5999999996399822e+01
f007 3.4999999996399822e+01
s008 1.1999999996399822e+01
f008 1.8999999996399815e+01
s009 0
f009 2
s010 -7.1054273576010019e-15
f010 9.9999999999998579e-01
s011 1.1999999996399822e+01
f011 1.3999999996399815e+01
s012 0
f012 6.9999999999999991e+00
s013 7.9999999963998221e+00
f013 1.1999999996399822e+01
s014 1.8999999996399829e+01
f014 2.5999999996399822e+01
s015 1
f015 6
s016 2.3000000000000014e+01
f016 3.2000000000000014e+01
s017 3.2000000000000014e+01
f017 3.4000000000000014e+01
x001002 1
x001003 0
x001004 1
x001005 0
x001006 1
x001007 1
x001008 0
x001009 0
x001010 0
x001011 0
x001012 3.3306690738754696e-16
x001013 0
x001014 0
x001015 0
x001016 1
x001017 1
x002001 0
x002003 0
x002004 0
x002005 0
x002006 1
x002007 0
x002008 0
x002009 0
x002010 0
x002011 0
x002012 0
x002013 0
x002014 0
x002015 0
x002016 1
x002017 1
x003001 0
x003002 1
x003004 1
x003005 0
x003006 0
x003007 1
x003008 0
x003009 0
x003010 0
x003011 0
x003012 0
x003013 0
x003014 1
x003015 0
x003016 0
x003017 1
x004001 0
x004002 0
x004003 0
x004005 0
x004006 0
x004007 1
x004008 0
x004009 0
x004010 0
x004011 0
x004012 0
x004013 0
x004014 1
x004015 0
x004016 1
x004017 1
x005001 1
x005002 1
x005003 1
x005004 1
x005006 1
x005007 1
x005008 1
x005009 0
x005010 0
x005011 0
x005012 0
x005013 1
x005014 1
x005015 0
x005016 1
x005017 1
x006001 0
x006002 0
x006003 0
x006004 0
x006005 0
x006007 0
x006008 0
x006009 0
x006010 0
x006011 0
x006012 0
x006013 0
x006014 0
x006015 0
x006016 1.5000778397222803e-10
x006017 0
x007001 0
x007002 0
x007003 0
x007004 0
x007005 0
x007006 0
x007008 0
x007009 0
x007010 0
x007011 0
x007012 0
x007013 0
x007014 0
x007015 0
x007016 0
x007017 0
x008001 0
x008002 0
x008003 0
x008004 0
x008005 0
x008006 0
x008007 1
x008009 0
x008010 0
x008011 0
x008012 0
x008013 0
x008014 1
x008015 0
x008016 0
x008017 0
x009001 1
x009002 1
x009003 1
x009004 1
x009005 1
x009006 1
x009007 1
x009008 1
x009010 0
x009011 1
x009012 0
x009013 0
x009014 1
x009015 0
x009016 1
x009017 1
x010001 1
x010002 1
x010003 1
x010004 1
x010005 0
x010006 1
x010007 1
x010008 1
x010009 0
x010011 0
x010012 0
x010013 0
x010014 1
x010015 1
x010016 1
x010017 1
x011001 0
x011002 0
x011003 0
x011004 1
x011005 0
x011006 1
x011007 1
x011008 0
x011009 0
x011010 0
x011012 0
x011013 0
x011014 0
x011015 0
x011016 1
x011017 1
x012001 9.9999999999999967e-01
x012002 1
x012003 1
x012004 1
x012005 0
x012006 1
x012007 1
x012008 1
x012009 0
x012010 0
x012011 1
x012013 1
x012014 1
x012015 0
x012016 1
x012017 1
x013001 0
x013002 0
x013003 0
x013004 1
x013005 0
x013006 1
x013007 1
x013008 1
x013009 0
x013010 0
x013011 1
x013012 0
x013014 0
x013015 0
x013016 1
x013017 1
x014001 0
x014002 0
x014003 0
x014004 0
x014005 0
x014006 0
x014007 1
x014008 0
x014009 0
x014010 0
x014011 0
x014012 0
x014013 0
x014015 0
x014016 0
x014017 1
x015001 1
x015002 1
x015003 1
x015004 0
x015005 0
x015006 1
x015007 0
x015008 0
x015009 0
x015010 0
x015011 1
x015012 0
x015013 0
x015014 0
x015016 1
x015017 1
x016001 0
x016002 0
x016003 0
x016004 0
x016005 0
x016006 9.9999999984999222e-01
x016007 0
x016008 0
x016009 0
x016010 0
x016011 0
x016012 0
x016013 0
x016014 0
x016015 0
x016017 1
x017001 0
x017002 0
x017003 0
x017004 0
x017005 0
x017006 0
x017007 0
x017008 0
x017009 0
x017010 0
x017011 0
x017012 0
x017013 0
x017014 0
x017015 0
x017016 0
A000001 1
A000002 0
A000003 0
A000004 0
A000005 0
A000006 1
A000007 0
A000008 0
A000009 0
A000010 0
A000011 0
A000012 0
A000013 0
A000014 0
A000015 0
A000016 1
A000017 0
A001001 0
A001002 1
A001003 1
A001004 0
A001005 0
A001006 0
A001007 0
A001008 0
A001009 0
A001010 1
A001011 0
A001012 0
A001013 0
A001014 0
A001015 1
A001016 0
A001017 1
A002001 0
A002002 0
A002003 0
A002004 0
A002005 1
A002006 0
A002007 0
A002008 1
A002009 0
A002010 0
A002011 0
A002012 0
A002013 0
A002014 1
A002015 0
A002016 0
A002017 0
A003001 0
A003002 0
A003003 0
A003004 0
A003005 0
A003006 0
A003007 0
A003008 0
A003009 1
A003010 0
A003011 1
A003012 0
A003013 0
A003014 0
A003015 0
A003016 0
A003017 0
A004001 0
A004002 0
A004003 0
A004004 1
A004005 0
A004006 0
A004007 1
A004008 0
A004009 0
A004010 0
A004011 0
A004012 1
A004013 1
A004014 0
A004015 0
A004016 0
A004017 0
A000001002 0
A000001003 0
A000001004 0
A000001005 0
A000001006 1
A000001007 0
A000001008 0
A000001009 0
A000001010 0
A000001011 0
A000001012 0
A000001013 0
A000001014 0
A000001015 0
A000001016 1
A000001017 0
A000002003 0
A000002004 0
A000002005 0
A000002006 0
A000002007 0
A000002008 0
A000002009 0
A000002010 0
A000002011 0
A000002012 0
A000002013 0
A000002014 0
A000002015 0
A000002016 0
A000002017 0
A000003004 0
A000003005 0
A000003006 0
A000003007 0
A000003008 0
A000003009 0
A000003010 0
A000003011 0
A000003012 0
A000003013 0
A000003014 0
A000003015 0
A000003016 0
A000003017 0
A000004005 0
A000004006 0
A000004007 0
A000004008 0
A000004009 0
A000004010 0
A000004011 0
A000004012 0
A000004013 0
A000004014 0
A000004015 0
A000004016 0
A000004017 0
A000005006 0
A000005007 0
A000005008 0
A000005009 0
A000005010 0
A000005011 0
A000005012 0
A000005013 0
A000005014 0
A000005015 0
A000005016 0
A000005017 0
A000006007 0
A000006008 0
A000006009 0
A000006010 0
A000006011 0
A000006012 0
A000006013 0
A000006014 0
A000006015 0
A000006016 1
A000006017 0
A000007008 0
A000007009 0
A000007010 0
A000007011 0
A000007012 0
A000007013 0
A000007014 0
A000007015 0
A000007016 0
A000007017 0
A000008009 0
A000008010 0
A000008011 0
A000008012 0
A000008013 0
A000008014 0
A000008015 0
A000008016 0
A000008017 0
A000009010 0
A000009011 0
A000009012 0
A000009013 0
A000009014 0
A000009015 0
A000009016 0
A000009017 0
A000010011 0
A000010012 0
A000010013 0
A000010014 0
A000010015 0
A000010016 0
A000010017 0
A000011012 0
A000011013 0
A000011014 0
A000011015 0
A000011016 0
A000011017 0
A000012013 0
A000012014 0
A000012015 0
A000012016 0
A000012017 0
A000013014 0
A000013015 0
A000013016 0
A000013017 0
A000014015 0
A000014016 0
A000014017 0
A000015016 0
A000015017 0
A000016017 0
A001001002 0
A001001003 0
A001001004 0
A001001005 0
A001001006 0
A001001007 0
A001001008 0
A001001009 0
A001001010 0
A001001011 0
A001001012 0
A001001013 0
A001001014 0
A001001015 0
A001001016 0
A001001017 0
A001002003 1
A001002004 0
A001002005 0
A001002006 0
A001002007 0
A001002008 0
A001002009 0
A001002010 1
A001002011 0
A001002012 0
A001002013 0
A001002014 0
A001002015 1
A001002016 0
A001002017 1
A001003004 0
A001003005 0
A001003006 0
A001003007 0
A001003008 0
A001003009 0
A001003010 1
A001003011 0
A001003012 0
A001003013 0
A001003014 0
A001003015 1
A001003016 0
A001003017 1
A001004005 0
A001004006 0
A001004007 0
A001004008 0
A001004009 0
A001004010 0
A001004011 0
A001004012 0
A001004013 0
A001004014 0
A001004015 0
A001004016 0
A001004017 0
A001005006 0
A001005007 0
A001005008 0
A001005009 0
A001005010 0
A001005011 0
A001005012 0
A001005013 0
A001005014 0
A001005015 0
A001005016 0
A001005017 0
A001006007 0
A001006008 0
A001006009 0
A001006010 0
A001006011 0
A001006012 0
A001006013 0
A001006014 0
A001006015 0
A001006016 0
A001006017 0
A001007008 0
A001007009 0
A001007010 0
A001007011 0
A001007012 0
A001007013 0
A001007014 0
A001007015 0
A001007016 0
A001007017 0
A001008009 0
A001008010 0
A001008011 0
A001008012 0
A001008013 0
A001008014 0
A001008015 0
A001008016 0
A001008017 0
A001009010 0
A001009011 0
A001009012 0
A001009013 0
A001009014 0
A001009015 0
A001009016 0
A001009017 0
A001010011 0
A001010012 0
A001010013 0
A001010014 0
A001010015 1
A001010016 0
A001010017 1
A001011012 0
A001011013 0
A001011014 0
A001011015 0
A001011016 0
A001011017 0
A001012013 0
A001012014 0
A001012015 0
A001012016 0
A001012017 0
A001013014 0
A001013015 0
A001013016 0
A001013017 0
A001014015 0
A001014016 0
A001014017 0
A001015016 0
A001015017 1
A001016017 0
A002001002 0
A002001003 0
A002001004 0
A002001005 0
A002001006 0
A002001007 0
A002001008 0
A002001009 0
A002001010 0
A002001011 0
A002001012 0
A002001013 0
A002001014 0
A002001015 0
A002001016 0
A002001017 0
A002002003 0
A002002004 0
A002002005 0
A002002006 0
A002002007 0
A002002008 0
A002002009 0
A002002010 0
A002002011 0
A002002012 0
A002002013 0
A002002014 0
A002002015 0
A002002016 0
A002002017 0
A002003004 0
A002003005 0
A002003006 0
A002003007 0
A002003008 0
A002003009 0
A002003010 0
A002003011 0
A002003012 0
A002003013 0
A002003014 0
A002003015 0
A002003016 0
A002003017 0
A002004005 0
A002004006 0
A002004007 0
A002004008 0
A002004009 0
A002004010 0
A002004011 0
A002004012 0
A002004013 0
A002004014 0
A002004015 0
A002004016 0
A002004017 0
A002005006 0
A002005007 0
A002005008 1
A002005009 0
A002005010 0
A002005011 0
A002005012 0
A002005013 0
A002005014 1
A002005015 0
A002005016 0
A002005017 0
A002006007 0
A002006008 0
A002006009 0
A002006010 0
A002006011 0
A002006012 0
A002006013 0
A002006014 0
A002006015 0
A002006016 0
A002006017 0
A002007008 0
A002007009 0
A002007010 0
A002007011 0
A002007012 0
A002007013 0
A002007014 0
A002007015 0
A002007016 0
A002007017 0
A002008009 0
A002008010 0
A002008011 0
A002008012 0
A002008013 0
A002008014 1
A002008015 0
A002008016 0
A002008017 0
A002009010 0
A002009011 0
A002009012 0
A002009013 0
A002009014 0
A002009015 0
A002009016 0
A002009017 0
A002010011 0
A002010012 0
A002010013 0
A002010014 0
A002010015 0
A002010016 0
A002010017 0
A002011012 0
A002011013 0
A002011014 0
A002011015 0
A002011016 0
A002011017 0
A002012013 0
A002012014 0
A002012015 0
A002012016 0
A002012017 0
A002013014 0
A002013015 0
A002013016 0
A002013017 0
A002014015 0
A002014016 0
A002014017 0
A002015016 0
A002015017 0
A002016017 0
A003001002 0
A003001003 0
A003001004 0
A003001005 0
A003001006 0
A003001007 0
A003001008 0
A003001009 0
A003001010 0
A003001011 0
A003001012 0
A003001013 0
A003001014 0
A003001015 0
A003001016 0
A003001017 0
A003002003 0
A003002004 0
A003002005 0
A003002006 0
A003002007 0
A003002008 0
A003002009 0
A003002010 0
A003002011 0
A003002012 0
A003002013 0
A003002014 0
A003002015 0
A003002016 0
A003002017 0
A003003004 0
A003003005 0
A003003006 0
A003003007 0
A003003008 0
A003003009 0
A003003010 0
A003003011 0
A003003012 0
A003003013 0
A003003014 0
A003003015 0
A003003016 0
A003003017 0
A003004005 0
A003004006 0
A003004007 0
A003004008 0
A003004009 0
A003004010 0
A003004011 0
A003004012 0
A003004013 0
A003004014 0
A003004015 0
A003004016 0
A003004017 0
A003005006 0
A003005007 0
A003005008 0
A003005009 0
A003005010 0
A003005011 0
A003005012 0
A003005013 0
A003005014 0
A003005015 0
A003005016 0
A003005017 0
A003006007 0
A003006008 0
A003006009 0
A003006010 0
A003006011 0
A003006012 0
A003006013 0
A003006014 0
A003006015 0
A003006016 0
A003006017 0
A003007008 0
A003007009 0
A003007010 0
A003007011 0
A003007012 0
A003007013 0
A003007014 0
A003007015 0
A003007016 0
A003007017 0
A003008009 0
A003008010 0
A003008011 0
A003008012 0
A003008013 0
A003008014 0
A003008015 0
A003008016 0
A003008017 0
A003009010 0
A003009011 1
A003009012 0
A003009013 0
A003009014 0
A003009015 0
A003009016 0
A003009017 0
A003010011 0
A003010012 0
A003010013 0
A003010014 0
A003010015 0
A003010016 0
A003010017 0
A003011012 0
A003011013 0
A003011014 0
A003011015 0
A003011016 0
A003011017 0
A003012013 0
A003012014 0
A003012015 0
A003012016 0
A003012017 0
A003013014 0
A003013015 0
A003013016 0
A003013017 0
A003014015 0
A003014016 0
A003014017 0
A003015016 0
A003015017 0
A003016017 0
A004001002 0
A004001003 0
A004001004 0
A004001005 0
A004001006 0
A004001007 0
A004001008 0
A004001009 0
A004001010 0
A004001011 0
A004001012 0
A004001013 0
A004001014 0
A004001015 0
A004001016 0
A004001017 0
A004002003 0
A004002004 0
A004002005 0
A004002006 0
A004002007 0
A004002008 0
A004002009 0
A004002010 0
A004002011 0
A004002012 0
A004002013 0
A004002014 0
A004002015 0
A004002016 0
A004002017 0
A004003004 0
A004003005 0
A004003006 0
A004003007 0
A004003008 0
A004003009 0
A004003010 0
A004003011 0
A004003012 0
A004003013 0
A004003014 0
A004003015 0
A004003016 0
A004003017 0
A004004005 0
A004004006 0
A004004007 1
A004004008 0
A004004009 0
A004004010 0
A004004011 0
A004004012 1
A004004013 1
A004004014 0
A004004015 0
A004004016 0
A004004017 0
A004005006 0
A004005007 0
A004005008 0
A004005009 0
A004005010 0
A004005011 0
A004005012 0
A004005013 0
A004005014 0
A004005015 0
A004005016 0
A004005017 0
A004006007 0
A004006008 0
A004006009 0
A004006010 0
A004006011 0
A004006012 0
A004006013 0
A004006014 0
A004006015 0
A004006016 0
A004006017 0
A004007008 0
A004007009 0
A004007010 0
A004007011 0
A004007012 1
A004007013 1
A004007014 0
A004007015 0
A004007016 0
A004007017 0
A004008009 0
A004008010 0
A004008011 0
A004008012 0
A004008013 0
A004008014 0
A004008015 0
A004008016 0
A004008017 0
A004009010 0
A004009011 0
A004009012 0
A004009013 0
A004009014 0
A004009015 0
A004009016 0
A004009017 0
A004010011 0
A004010012 0
A004010013 0
A004010014 0
A004010015 0
A004010016 0
A004010017 0
A004011012 0
A004011013 0
A004011014 0
A004011015 0
A004011016 0
A004011017 0
A004012013 1
A004012014 0
A004012015 0
A004012016 0
A004012017 0
A004013014 0
A004013015 0
A004013016 0
A004013017 0
A004014015 0
A004014016 0
A004014017 0
A004015016 0
A004015017 0
A004016017 0
